p edge 75 1388
e 1 2
e 1 3
e 1 4
e 1 7
e 1 9
e 1 10
e 1 12
e 1 13
e 1 15
e 1 17
e 1 18
e 1 19
e 1 22
e 1 24
e 1 25
e 1 26
e 1 27
e 1 29
e 1 31
e 1 32
e 1 33
e 1 34
e 1 38
e 1 39
e 1 45
e 1 48
e 1 49
e 1 54
e 1 55
e 1 57
e 1 61
e 1 67
e 1 70
e 1 72
e 2 4
e 2 5
e 2 7
e 2 8
e 2 9
e 2 13
e 2 19
e 2 21
e 2 22
e 2 23
e 2 25
e 2 27
e 2 28
e 2 30
e 2 31
e 2 32
e 2 34
e 2 36
e 2 39
e 2 43
e 2 45
e 2 46
e 2 47
e 2 49
e 2 51
e 2 52
e 2 53
e 2 54
e 2 56
e 2 58
e 2 62
e 2 63
e 2 67
e 2 68
e 2 71
e 3 5
e 3 7
e 3 9
e 3 11
e 3 12
e 3 14
e 3 15
e 3 19
e 3 22
e 3 27
e 3 29
e 3 30
e 3 31
e 3 33
e 3 39
e 3 40
e 3 42
e 3 43
e 3 45
e 3 47
e 3 48
e 3 49
e 3 52
e 3 54
e 3 55
e 3 57
e 3 58
e 3 60
e 3 63
e 3 65
e 3 67
e 3 69
e 3 72
e 3 73
e 4 5
e 4 7
e 4 8
e 4 9
e 4 11
e 4 15
e 4 18
e 4 19
e 4 30
e 4 32
e 4 35
e 4 37
e 4 39
e 4 41
e 4 42
e 4 44
e 4 51
e 4 52
e 4 58
e 4 60
e 4 63
e 4 64
e 4 65
e 4 68
e 4 71
e 4 74
e 4 75
e 5 6
e 5 10
e 5 11
e 5 14
e 5 16
e 5 18
e 5 19
e 5 24
e 5 25
e 5 27
e 5 28
e 5 30
e 5 31
e 5 32
e 5 34
e 5 36
e 5 39
e 5 40
e 5 41
e 5 42
e 5 49
e 5 53
e 5 60
e 5 62
e 5 64
e 5 65
e 5 67
e 5 68
e 5 69
e 5 73
e 5 75
e 6 7
e 6 8
e 6 9
e 6 11
e 6 12
e 6 14
e 6 15
e 6 17
e 6 19
e 6 21
e 6 22
e 6 23
e 6 24
e 6 26
e 6 27
e 6 28
e 6 31
e 6 33
e 6 34
e 6 35
e 6 38
e 6 39
e 6 40
e 6 41
e 6 44
e 6 45
e 6 47
e 6 51
e 6 54
e 6 57
e 6 60
e 6 66
e 6 68
e 6 70
e 6 74
e 7 8
e 7 11
e 7 12
e 7 17
e 7 19
e 7 20
e 7 21
e 7 25
e 7 26
e 7 27
e 7 28
e 7 33
e 7 34
e 7 36
e 7 37
e 7 41
e 7 46
e 7 48
e 7 50
e 7 54
e 7 55
e 7 56
e 7 58
e 7 59
e 7 60
e 7 61
e 7 63
e 7 64
e 7 68
e 7 70
e 7 71
e 7 72
e 7 73
e 7 75
e 8 9
e 8 10
e 8 13
e 8 15
e 8 18
e 8 21
e 8 22
e 8 24
e 8 25
e 8 27
e 8 28
e 8 29
e 8 31
e 8 32
e 8 33
e 8 34
e 8 35
e 8 43
e 8 46
e 8 47
e 8 48
e 8 52
e 8 55
e 8 59
e 8 60
e 8 61
e 8 62
e 8 65
e 8 67
e 8 69
e 8 70
e 8 71
e 8 72
e 8 74
e 8 75
e 9 15
e 9 17
e 9 18
e 9 19
e 9 20
e 9 21
e 9 22
e 9 24
e 9 26
e 9 28
e 9 30
e 9 31
e 9 34
e 9 35
e 9 36
e 9 37
e 9 41
e 9 46
e 9 48
e 9 49
e 9 50
e 9 52
e 9 53
e 9 58
e 9 63
e 9 67
e 9 70
e 9 72
e 9 75
e 10 11
e 10 13
e 10 14
e 10 15
e 10 17
e 10 19
e 10 24
e 10 25
e 10 30
e 10 32
e 10 34
e 10 35
e 10 38
e 10 42
e 10 43
e 10 44
e 10 45
e 10 46
e 10 47
e 10 48
e 10 49
e 10 50
e 10 52
e 10 54
e 10 56
e 10 57
e 10 61
e 10 62
e 10 70
e 10 71
e 10 72
e 10 73
e 11 12
e 11 14
e 11 17
e 11 18
e 11 19
e 11 22
e 11 23
e 11 24
e 11 27
e 11 28
e 11 29
e 11 32
e 11 35
e 11 38
e 11 39
e 11 40
e 11 41
e 11 42
e 11 44
e 11 46
e 11 49
e 11 50
e 11 52
e 11 62
e 11 65
e 11 66
e 11 67
e 11 68
e 11 69
e 11 70
e 11 71
e 11 72
e 11 75
e 12 14
e 12 15
e 12 16
e 12 19
e 12 20
e 12 21
e 12 24
e 12 26
e 12 30
e 12 31
e 12 32
e 12 35
e 12 36
e 12 37
e 12 38
e 12 43
e 12 44
e 12 45
e 12 48
e 12 49
e 12 51
e 12 52
e 12 53
e 12 55
e 12 56
e 12 58
e 12 61
e 12 62
e 12 64
e 12 66
e 12 67
e 12 68
e 12 69
e 12 70
e 12 72
e 12 74
e 12 75
e 13 14
e 13 17
e 13 18
e 13 22
e 13 23
e 13 25
e 13 26
e 13 27
e 13 28
e 13 29
e 13 30
e 13 31
e 13 34
e 13 38
e 13 39
e 13 40
e 13 41
e 13 44
e 13 45
e 13 46
e 13 47
e 13 49
e 13 53
e 13 54
e 13 56
e 13 64
e 13 65
e 13 68
e 13 70
e 13 74
e 13 75
e 14 15
e 14 17
e 14 19
e 14 20
e 14 21
e 14 22
e 14 26
e 14 28
e 14 29
e 14 30
e 14 32
e 14 39
e 14 40
e 14 42
e 14 43
e 14 44
e 14 50
e 14 51
e 14 53
e 14 58
e 14 59
e 14 60
e 14 62
e 14 63
e 14 64
e 14 67
e 14 68
e 14 70
e 14 73
e 14 74
e 14 75
e 15 20
e 15 21
e 15 25
e 15 26
e 15 27
e 15 28
e 15 29
e 15 30
e 15 33
e 15 36
e 15 37
e 15 41
e 15 44
e 15 45
e 15 48
e 15 51
e 15 52
e 15 53
e 15 55
e 15 57
e 15 58
e 15 59
e 15 60
e 15 61
e 15 64
e 15 66
e 15 67
e 15 68
e 15 72
e 15 74
e 15 75
e 16 17
e 16 18
e 16 19
e 16 23
e 16 29
e 16 30
e 16 31
e 16 32
e 16 33
e 16 35
e 16 36
e 16 37
e 16 38
e 16 41
e 16 42
e 16 43
e 16 44
e 16 45
e 16 49
e 16 50
e 16 53
e 16 57
e 16 58
e 16 62
e 16 63
e 16 64
e 16 66
e 16 68
e 16 72
e 16 73
e 17 18
e 17 19
e 17 20
e 17 21
e 17 22
e 17 23
e 17 24
e 17 25
e 17 29
e 17 30
e 17 31
e 17 34
e 17 36
e 17 38
e 17 39
e 17 40
e 17 41
e 17 45
e 17 46
e 17 47
e 17 48
e 17 51
e 17 53
e 17 60
e 17 61
e 17 62
e 17 63
e 17 65
e 17 66
e 17 67
e 17 73
e 17 74
e 18 19
e 18 20
e 18 22
e 18 23
e 18 25
e 18 26
e 18 28
e 18 33
e 18 35
e 18 36
e 18 38
e 18 40
e 18 41
e 18 42
e 18 44
e 18 45
e 18 49
e 18 50
e 18 52
e 18 53
e 18 55
e 18 56
e 18 58
e 18 60
e 18 66
e 18 67
e 18 69
e 18 71
e 18 72
e 18 73
e 18 75
e 19 21
e 19 24
e 19 25
e 19 27
e 19 28
e 19 29
e 19 31
e 19 33
e 19 35
e 19 36
e 19 38
e 19 40
e 19 41
e 19 42
e 19 43
e 19 45
e 19 46
e 19 47
e 19 48
e 19 50
e 19 53
e 19 54
e 19 57
e 19 58
e 19 59
e 19 62
e 19 63
e 19 65
e 19 66
e 19 67
e 19 69
e 19 71
e 19 73
e 19 74
e 19 75
e 20 21
e 20 22
e 20 23
e 20 24
e 20 28
e 20 30
e 20 31
e 20 34
e 20 35
e 20 38
e 20 39
e 20 40
e 20 41
e 20 43
e 20 44
e 20 45
e 20 46
e 20 48
e 20 50
e 20 51
e 20 53
e 20 55
e 20 57
e 20 59
e 20 62
e 20 63
e 20 66
e 20 72
e 20 73
e 20 75
e 21 26
e 21 29
e 21 31
e 21 32
e 21 36
e 21 37
e 21 38
e 21 39
e 21 42
e 21 45
e 21 46
e 21 47
e 21 48
e 21 50
e 21 51
e 21 55
e 21 59
e 21 60
e 21 62
e 21 63
e 21 65
e 21 66
e 21 68
e 21 71
e 21 72
e 21 73
e 22 23
e 22 24
e 22 25
e 22 26
e 22 27
e 22 30
e 22 32
e 22 34
e 22 36
e 22 38
e 22 39
e 22 41
e 22 42
e 22 43
e 22 44
e 22 48
e 22 52
e 22 53
e 22 54
e 22 55
e 22 56
e 22 59
e 22 60
e 22 61
e 22 64
e 22 65
e 22 67
e 22 70
e 22 72
e 22 74
e 23 25
e 23 27
e 23 29
e 23 30
e 23 31
e 23 32
e 23 34
e 23 36
e 23 38
e 23 41
e 23 42
e 23 44
e 23 46
e 23 47
e 23 48
e 23 50
e 23 52
e 23 55
e 23 60
e 23 61
e 23 64
e 23 66
e 23 67
e 23 72
e 23 74
e 23 75
e 24 27
e 24 30
e 24 31
e 24 32
e 24 33
e 24 35
e 24 36
e 24 37
e 24 38
e 24 39
e 24 46
e 24 49
e 24 52
e 24 53
e 24 54
e 24 55
e 24 56
e 24 59
e 24 61
e 24 65
e 24 68
e 24 69
e 24 70
e 24 74
e 25 27
e 25 28
e 25 30
e 25 31
e 25 34
e 25 36
e 25 39
e 25 41
e 25 42
e 25 44
e 25 45
e 25 46
e 25 47
e 25 51
e 25 54
e 25 56
e 25 57
e 25 60
e 25 61
e 25 63
e 25 64
e 25 67
e 25 68
e 25 71
e 25 72
e 25 73
e 25 75
e 26 27
e 26 28
e 26 29
e 26 30
e 26 33
e 26 34
e 26 35
e 26 37
e 26 38
e 26 40
e 26 41
e 26 42
e 26 44
e 26 46
e 26 48
e 26 49
e 26 51
e 26 55
e 26 60
e 26 61
e 26 67
e 26 69
e 26 74
e 27 28
e 27 29
e 27 30
e 27 32
e 27 35
e 27 36
e 27 40
e 27 43
e 27 47
e 27 49
e 27 50
e 27 53
e 27 54
e 27 55
e 27 56
e 27 59
e 27 60
e 27 61
e 27 63
e 27 64
e 27 67
e 27 70
e 27 74
e 28 29
e 28 30
e 28 31
e 28 38
e 28 39
e 28 42
e 28 43
e 28 44
e 28 45
e 28 46
e 28 47
e 28 48
e 28 49
e 28 50
e 28 51
e 28 52
e 28 54
e 28 55
e 28 57
e 28 61
e 28 62
e 28 67
e 29 30
e 29 33
e 29 34
e 29 37
e 29 38
e 29 41
e 29 44
e 29 46
e 29 48
e 29 51
e 29 52
e 29 53
e 29 55
e 29 57
e 29 62
e 29 63
e 29 64
e 29 65
e 29 70
e 29 72
e 29 74
e 29 75
e 30 32
e 30 33
e 30 37
e 30 38
e 30 39
e 30 40
e 30 41
e 30 42
e 30 43
e 30 50
e 30 51
e 30 53
e 30 57
e 30 59
e 30 60
e 30 61
e 30 64
e 30 66
e 30 67
e 30 70
e 30 72
e 30 73
e 30 74
e 31 32
e 31 34
e 31 35
e 31 36
e 31 46
e 31 50
e 31 52
e 31 53
e 31 54
e 31 55
e 31 56
e 31 58
e 31 60
e 31 61
e 31 62
e 31 63
e 31 64
e 31 65
e 31 66
e 31 69
e 31 71
e 31 72
e 31 73
e 31 74
e 31 75
e 32 35
e 32 36
e 32 38
e 32 41
e 32 42
e 32 43
e 32 45
e 32 46
e 32 47
e 32 52
e 32 54
e 32 56
e 32 57
e 32 63
e 32 65
e 32 66
e 32 67
e 32 69
e 32 70
e 32 71
e 32 73
e 32 74
e 32 75
e 33 35
e 33 36
e 33 40
e 33 44
e 33 45
e 33 49
e 33 51
e 33 53
e 33 58
e 33 59
e 33 60
e 33 61
e 33 63
e 33 65
e 33 67
e 33 68
e 33 72
e 33 73
e 33 74
e 34 36
e 34 43
e 34 44
e 34 45
e 34 46
e 34 47
e 34 48
e 34 49
e 34 50
e 34 54
e 34 55
e 34 57
e 34 60
e 34 61
e 34 62
e 34 64
e 34 67
e 34 69
e 34 75
e 35 39
e 35 40
e 35 41
e 35 42
e 35 43
e 35 45
e 35 47
e 35 49
e 35 50
e 35 51
e 35 53
e 35 55
e 35 57
e 35 62
e 35 67
e 35 69
e 35 72
e 35 73
e 36 37
e 36 41
e 36 43
e 36 45
e 36 48
e 36 49
e 36 50
e 36 51
e 36 53
e 36 55
e 36 56
e 36 59
e 36 62
e 36 63
e 36 64
e 36 65
e 36 68
e 36 72
e 36 73
e 37 38
e 37 40
e 37 41
e 37 43
e 37 45
e 37 46
e 37 47
e 37 48
e 37 54
e 37 55
e 37 59
e 37 60
e 37 61
e 37 62
e 37 67
e 37 68
e 37 70
e 37 74
e 38 39
e 38 40
e 38 42
e 38 46
e 38 48
e 38 49
e 38 51
e 38 52
e 38 54
e 38 55
e 38 56
e 38 59
e 38 61
e 38 63
e 38 64
e 38 65
e 38 66
e 38 68
e 38 71
e 38 74
e 38 75
e 39 40
e 39 43
e 39 45
e 39 47
e 39 48
e 39 49
e 39 51
e 39 52
e 39 54
e 39 55
e 39 56
e 39 57
e 39 60
e 39 61
e 39 62
e 39 63
e 39 64
e 39 66
e 39 68
e 39 69
e 39 74
e 39 75
e 40 42
e 40 44
e 40 47
e 40 48
e 40 49
e 40 50
e 40 51
e 40 52
e 40 54
e 40 55
e 40 57
e 40 58
e 40 60
e 40 61
e 40 63
e 40 65
e 40 66
e 40 73
e 40 74
e 41 43
e 41 45
e 41 46
e 41 48
e 41 53
e 41 54
e 41 55
e 41 57
e 41 58
e 41 60
e 41 61
e 41 62
e 41 63
e 41 65
e 41 67
e 41 71
e 41 75
e 42 43
e 42 45
e 42 46
e 42 47
e 42 48
e 42 50
e 42 51
e 42 52
e 42 54
e 42 55
e 42 57
e 42 58
e 42 59
e 42 62
e 42 63
e 42 65
e 42 68
e 42 69
e 42 71
e 42 72
e 43 44
e 43 45
e 43 47
e 43 49
e 43 50
e 43 52
e 43 53
e 43 55
e 43 57
e 43 62
e 43 64
e 43 67
e 43 68
e 43 69
e 43 70
e 44 46
e 44 49
e 44 54
e 44 59
e 44 60
e 44 62
e 44 65
e 44 68
e 44 69
e 44 71
e 44 72
e 44 73
e 44 74
e 44 75
e 45 46
e 45 48
e 45 54
e 45 55
e 45 57
e 45 61
e 45 64
e 45 66
e 45 68
e 45 69
e 45 70
e 45 72
e 45 74
e 46 48
e 46 49
e 46 50
e 46 53
e 46 54
e 46 55
e 46 56
e 46 57
e 46 58
e 46 60
e 46 61
e 46 67
e 46 68
e 46 71
e 46 74
e 46 75
e 47 48
e 47 50
e 47 52
e 47 53
e 47 54
e 47 55
e 47 56
e 47 57
e 47 59
e 47 60
e 47 61
e 47 65
e 47 68
e 48 52
e 48 53
e 48 54
e 48 55
e 48 60
e 48 61
e 48 63
e 48 65
e 48 66
e 48 68
e 48 70
e 48 71
e 48 72
e 48 74
e 48 75
e 49 51
e 49 52
e 49 54
e 49 56
e 49 57
e 49 60
e 49 61
e 49 62
e 49 63
e 49 66
e 49 68
e 49 69
e 49 70
e 49 73
e 50 54
e 50 56
e 50 60
e 50 64
e 50 65
e 50 66
e 50 68
e 50 69
e 50 72
e 50 75
e 51 53
e 51 55
e 51 56
e 51 57
e 51 58
e 51 59
e 51 61
e 51 62
e 51 63
e 51 64
e 51 68
e 51 71
e 51 73
e 51 75
e 52 54
e 52 55
e 52 56
e 52 59
e 52 63
e 52 64
e 52 67
e 52 68
e 52 69
e 52 70
e 52 71
e 52 74
e 53 54
e 53 56
e 53 58
e 53 60
e 53 62
e 53 64
e 53 66
e 53 67
e 53 68
e 53 70
e 53 71
e 53 75
e 54 57
e 54 63
e 54 64
e 54 66
e 54 71
e 54 72
e 54 74
e 54 75
e 55 56
e 55 57
e 55 62
e 55 63
e 55 64
e 55 66
e 55 67
e 55 68
e 55 69
e 55 70
e 55 71
e 55 72
e 55 73
e 55 74
e 56 59
e 56 61
e 56 63
e 56 64
e 56 66
e 56 67
e 56 68
e 56 69
e 56 70
e 56 75
e 57 61
e 57 63
e 57 64
e 57 67
e 57 70
e 57 71
e 57 73
e 58 59
e 58 62
e 58 64
e 58 66
e 58 68
e 58 72
e 58 73
e 58 75
e 59 61
e 59 62
e 59 63
e 59 64
e 59 68
e 59 72
e 59 73
e 59 75
e 60 64
e 60 66
e 60 70
e 60 73
e 60 75
e 61 63
e 61 67
e 61 68
e 61 69
e 61 73
e 62 65
e 62 66
e 62 67
e 62 68
e 62 69
e 62 70
e 62 72
e 63 64
e 63 66
e 63 67
e 63 71
e 63 74
e 63 75
e 64 69
e 64 72
e 65 66
e 65 67
e 65 68
e 65 69
e 65 70
e 65 72
e 65 74
e 65 75
e 66 67
e 66 70
e 66 71
e 66 72
e 67 73
e 67 74
e 68 70
e 68 73
e 68 75
e 69 70
e 69 72
e 69 73
e 69 74
e 70 71
e 70 72
e 70 75
e 71 73
e 72 75
e 73 75
